
  32    4
  10   10   10   10

   0   0   0   0   0   4 2 29 30 31 
   4   1   1   0   1   1 3 
   4   0   3   1   2   1 4 
   3   0   4   3   3   1 5 
   2   3   2   5   0   1 6 
   8   6   8   0   7   1 7 
   1   4   5   5   0   1 8 
   2   2   4   0   3   2 28 9 
  10   6   4   4   0   1 10 
  10   0   4   6   4   1 11 
   8   0   4   7   7   1 12 
   9   0   5   1   1   2 21 13 
   7   4   4   0   4   1 14 
   8   7   3   5   0   1 15 
   7   7   4   0   4   2 27 16 
   7   0   4   4   6   1 17 
   9   2   0   3   1   1 18 
   8   2   2   4   0   1 19 
   5   3   4   0   8   1 20 
   3   3   4   3   0   1 22 
   8   0   4   4   3   1 22 
  10   3   0   4   4   1 23 
   8   8   4   4   0   1 24 
   1   6   0   5   3   1 25 
   2   4   6   0   5   1 26 
   1   0   3   3   4   1 32
   1   0   1   4   2   1 32
   9   3   0   4   7   1 32
   1   4   5   0   5   1 32
   7   3   8   5   0   1 32
   9   3   0   4   4   1 32
   0   0   0   0   0   0 
